DIMENSION: 150
82
95
107
5
100
143
97
124
52
111
105
33
126
93
35
96
89
8
84
7
30
63
48
73
76
87
1
98
103
34
21
134
138
46
54
92
90
83
56
26
146
75
18
142
85
65
132
137
102
114
99
19
2
6
28
9
37
42
120
47
110
81
29
86
108
70
135
50
55
58
141
25
20
51
109
43
67
38
23
32
131
77
122
14
80
78
15
133
16
59
79
121
88
94
10
113
3
62
149
125
22
104
4
150
115
44
71
45
128
68
119
91
106
13
64
112
136
74
123
31
27
129
144
147
49
72
145
117
140
17
66
60
130
148
11
61
36
69
127
39
57
41
101
116
12
24
118
53
40
